p tw 20 58
e 0 1
e 0 4
e 0 9
e 0 10
e 0 14
e 0 17
e 1 2
e 1 3
e 1 7
e 1 9
e 1 10
e 1 13
e 1 14
e 1 15
e 1 17
e 1 18
e 2 5
e 2 8
e 3 6
e 3 7
e 3 10
e 4 6
e 4 7
e 4 12
e 4 18
e 5 9
e 5 12
e 6 8
e 6 11
e 7 8
e 7 9
e 7 10
e 7 16
e 7 19
e 8 9
e 8 10
e 8 12
e 8 13
e 8 16
e 8 17
e 8 19
e 9 10
e 9 15
e 9 18
e 9 19
e 10 13
e 10 16
e 10 17
e 10 18
e 11 12
e 11 16
e 12 13
e 12 19
e 13 14
e 14 18
e 14 19
e 15 17
e 16 18
